
GUB cover cuts applied:  2
Cover cuts applied:  3
Implied bound cuts applied:  36
Mixed integer rounding cuts applied:  5
Zero-half cuts applied:  4
Multi commodity flow cuts applied:  1

Root node processing (before b&c):
  Real time             =    0.07 sec. (35.04 ticks)
Parallel b&c, 4 threads:
  Real time             =    0.02 sec. (12.28 ticks)
  Sync time (average)   =    0.00 sec.
  Wait time (average)   =    0.00 sec.
                          ------------
Total (root+branch&cut) =    0.09 sec. (47.33 ticks)
Version identifier: 12.10.0.0 | 2019-11-26 | 843d4de
CPXPARAM_MIP_Interval                            10
CPXPARAM_MIP_Tolerances_AbsMIPGap                0.98999999999999999
Tried aggregator 2 times.
MIP Presolve eliminated 4572 rows and 2200 columns.
MIP Presolve added 4 rows and 0 columns.
MIP Presolve modified 156 coefficients.
Aggregator did 11 substitutions.
Reduced MIP has 2223 rows, 236 columns, and 4806 nonzeros.
Reduced MIP has 189 binaries, 47 generals, 0 SOSs, and 0 indicators.
Presolve time = 0.01 sec. (7.44 ticks)
Probing fixed 0 vars, tightened 6 bounds.
Probing time = 0.00 sec. (0.90 ticks)
Cover probing fixed 0 vars, tightened 36 bounds.
Tried aggregator 1 time.
Detecting symmetries...
MIP Presolve eliminated 1788 rows and 0 columns.
MIP Presolve modified 21 coefficients.
Reduced MIP has 435 rows, 236 columns, and 1230 nonzeros.
Reduced MIP has 189 binaries, 47 generals, 0 SOSs, and 0 indicators.
Presolve time = 0.00 sec. (1.75 ticks)
Probing fixed 0 vars, tightened 6 bounds.
Probing time = 0.00 sec. (0.25 ticks)
Cover probing fixed 0 vars, tightened 33 bounds.
Clique table members: 295.
MIP emphasis: balance optimality and feasibility.
MIP search method: dynamic search.
Parallel mode: deterministic, using up to 4 threads.
Root relaxation solution time = 0.00 sec. (1.44 ticks)

        Nodes                                         Cuts/
   Node  Left     Objective  IInf  Best Integer    Best Bound    ItCnt     Gap

      0     0       31.3333    74                     31.3333      191         
      0     0       31.3333    74                     Cuts: 8      217         
      0     0       31.3333    74                    Cuts: 24      270         
      0     0       31.3333    74                    Cuts: 35      354         
*     0+    0                           30.0000       31.3333             4.44%
Detecting symmetries...
      0     2       31.3333     5       30.0000       31.3333      354    4.44%
Elapsed time = 0.11 sec. (52.16 ticks, tree = 0.02 MB, solutions = 1)
     10     5       31.3333    44       30.0000       31.3333      433    4.44%
     20     4        cutoff             30.0000       31.3333     1016    4.44%
     30     4       31.3333     2       30.0000       31.3333     1358    4.44%
     40     4        cutoff             30.0000       31.3333     1801    4.44%
     50     5        cutoff             30.0000       31.1111     2018    3.70%
the number of Nodes = 52
